(declare-fun temp84_1 () (_ BitVec 64))
(declare-fun temp84_2 () (_ BitVec 64))
(declare-fun var73335 () (_ BitVec 64))
(declare-fun k!0 () Bool)
(declare-fun ARGNAME_input_NAMEEND_NUMELEMENT () (_ BitVec 64))
(declare-fun temp84_3 () (_ BitVec 64))
(declare-fun ARGNAME_input_NAMEEND_DIM () (_ BitVec 64))
(declare-fun var265912 () (_ BitVec 64))
(declare-fun temp84_4 () (_ BitVec 64))
(declare-fun temp84_5 () (_ BitVec 64))
(declare-fun var198235 () (_ BitVec 64))
(declare-fun temp84_6 () (_ BitVec 64))
(declare-fun temp84_7 () (_ BitVec 64))
(declare-fun ARGNAME_input_NAMEEND_DIMSIZE
             ()
             (Array (_ BitVec 64) (_ BitVec 64)))
(declare-fun temp84_8 () (_ BitVec 64))
(declare-fun temp84_9 () (_ BitVec 64))
(declare-fun temp84_10 () (_ BitVec 64))
(declare-fun temp84_11 () (_ BitVec 64))
(declare-fun temp84_12 () (_ BitVec 64))
(declare-fun temp84_13 () (_ BitVec 64))
(declare-fun temp84_14 () (_ BitVec 64))
(declare-fun temp84_15 () (_ BitVec 64))
(declare-fun temp84_16 () (_ BitVec 64))
(declare-fun temp84_17 () (_ BitVec 64))
(declare-fun temp84_18 () (_ BitVec 64))
(declare-fun temp84_19 () (_ BitVec 64))
(declare-fun temp84_20 () (_ BitVec 64))
(declare-fun temp84_21 () (_ BitVec 64))
(declare-fun temp84_22 () (_ BitVec 64))
(declare-fun temp84_23 () (_ BitVec 64))
(declare-fun temp84_25 () (_ BitVec 64))
(declare-fun temp84_24 () (_ BitVec 64))
(declare-fun temp84_26 () (_ BitVec 64))
(declare-fun temp84_27 () (_ BitVec 64))
(declare-fun var198234 () (_ BitVec 64))
(declare-fun temp84_28 () (_ BitVec 64))
(declare-fun var198239 () (_ BitVec 64))
(declare-fun temp84_30 () (_ BitVec 64))
(declare-fun temp84_29 () (_ BitVec 64))
(declare-fun temp84_31 () (_ BitVec 64))
(declare-fun temp84_32 () (_ BitVec 64))
(declare-fun var198238 () (_ BitVec 64))
(declare-fun var198240 () (_ BitVec 64))
(declare-fun temp84_33 () (_ BitVec 64))
(declare-fun temp84_34 () (_ BitVec 64))
(declare-fun var73403 () (_ BitVec 64))
(declare-fun var1381053 () (_ BitVec 64))
(declare-fun temp84_35 () (_ BitVec 64))
(declare-fun var1512746 () (_ BitVec 64))
(declare-fun var1645010 () (_ BitVec 64))
(declare-fun temp84_36 () (_ BitVec 64))
(declare-fun var1707585 () (_ BitVec 64))
(declare-fun temp84_37 () (_ BitVec 64))
(declare-fun ARGNAME_upper_NAMEEND () (_ BitVec 64))
(declare-fun var73410 () (_ BitVec 64))
(declare-fun temp84_38 () (_ BitVec 64))
(assert (= temp84_1 #x0000000000000000))
(assert (= var73335
   (ite (= ARGNAME_input_NAMEEND_NUMELEMENT temp84_1)
        #x0000000000000001
        #x0000000000000000)))
(assert (= temp84_2 #x0000000000000000))
(assert (= var73335 temp84_2))
(assert (= temp84_3 #x0000000000000002))
(assert (= var265912
   (ite (bvslt ARGNAME_input_NAMEEND_DIM temp84_3)
        #x0000000000000001
        #x0000000000000000)))
(assert (= temp84_4 #x0000000000000000))
(assert (= var265912 temp84_4))
(assert (= temp84_5 #xffffffffffffffff))
(assert (= var198235 temp84_5))
(assert (= temp84_6 #x0000000000000000))
(assert (= temp84_7 temp84_6))
(assert (= temp84_8 (select ARGNAME_input_NAMEEND_DIMSIZE temp84_7)))
(assert (= temp84_9 #x0000000000000001))
(assert (= temp84_10 temp84_9))
(assert (= temp84_11 (select ARGNAME_input_NAMEEND_DIMSIZE temp84_10)))
(assert (= temp84_12 #x0000000000000002))
(assert (= temp84_13 temp84_12))
(assert (= temp84_14 (select ARGNAME_input_NAMEEND_DIMSIZE temp84_13)))
(assert (= temp84_15 #x0000000000000003))
(assert (= temp84_16 temp84_15))
(assert (= temp84_17 (select ARGNAME_input_NAMEEND_DIMSIZE temp84_16)))
(assert (= temp84_18 #x0000000000000004))
(assert (= temp84_19 temp84_18))
(assert (= temp84_20 (select ARGNAME_input_NAMEEND_DIMSIZE temp84_19)))
(assert (= temp84_21 #x0000000000000005))
(assert (= temp84_22 temp84_21))
(assert (= temp84_23 (select ARGNAME_input_NAMEEND_DIMSIZE temp84_22)))
(assert (= temp84_25 #x0000000000000000))
(assert (= temp84_24
   (ite (bvslt var198235 temp84_25)
        (bvadd ARGNAME_input_NAMEEND_DIM var198235)
        var198235)))
(assert (= temp84_26 temp84_24))
(assert (= temp84_27 (select ARGNAME_input_NAMEEND_DIMSIZE temp84_26)))
(assert (= var198234 temp84_27))
(assert (bvslt temp84_24 ARGNAME_input_NAMEEND_DIM))
(assert (= temp84_28 #xfffffffffffffffe))
(assert (= var198239 temp84_28))
(assert (= temp84_30 #x0000000000000000))
(assert (= temp84_29
   (ite (bvslt var198239 temp84_30)
        (bvadd ARGNAME_input_NAMEEND_DIM var198239)
        var198239)))
(assert (= temp84_31 temp84_29))
(assert (= temp84_32 (select ARGNAME_input_NAMEEND_DIMSIZE temp84_31)))
(assert (= var198238 temp84_32))
(assert (bvslt temp84_29 ARGNAME_input_NAMEEND_DIM))
(assert (= var198240
   (ite (= var198234 var198238) #x0000000000000001 #x0000000000000000)))
(assert (= temp84_33 #x0000000000000001))
(assert (= var198240 temp84_33))
(assert (= temp84_34 #x0000000000000002))
(assert (= var73403
   (ite (= ARGNAME_input_NAMEEND_DIM temp84_34)
        #x0000000000000001
        #x0000000000000000)))
(assert (= var1381053 var73403))
(assert (= temp84_35 #x0000000000000000))
(assert (= var1512746 temp84_35))
(assert (= var1645010 var1512746))
(assert (= temp84_36 #x0000000000000001))
(assert (= var1707585 temp84_36))
(assert (= temp84_37 #x0000000000000000))
(assert (= var73410
   (ite (= ARGNAME_upper_NAMEEND temp84_37)
        #x0000000000000001
        #x0000000000000000)))
(assert (= temp84_38 #x0000000000000001))
(assert (= var73410 temp84_38))
(model-add temp84_1 () (_ BitVec 64) #x0000000000000000)
(model-add temp84_2 () (_ BitVec 64) #x0000000000000000)
(model-add var73335 () (_ BitVec 64) #x0000000000000000)
(model-del k!0)
(model-add ARGNAME_input_NAMEEND_NUMELEMENT
           ()
           (_ BitVec 64)
           (ite k!0 #x0000000000000000 (bvnot #x0000000000000000)))






